c User generated cnf file
p cnf 14 44
4 -11 9 0 
11 4 -1 0 
-4 1 1 0 
5 11 -2 0 
5 -1 4 0 
-8 11 3 0 
-6 12 11 0 
-2 9 5 0 
12 10 -13 0 
-10 9 6 0 
12 6 -10 0 
12 -2 4 0 
10 -7 13 0 
4 -11 1 0 
8 -5 3 0 
-14 13 3 0 
-1 7 4 0 
5 -11 7 0 
5 13 -2 0 
11 14 -3 0 
-11 6 6 0 
5 -13 6 0 
-1 4 7 0 
-2 7 8 0 
13 8 -12 0 
8 1 -1 0 
9 -1 14 0 
13 13 -4 0 
-4 13 4 0 
-9 10 12 0 
1 7 -10 0 
8 -13 9 0 
3 -4 8 0 
5 8 -7 0 
7 11 -10 0 
-5 4 14 0 
12 2 -6 0 
-7 13 4 0 
-11 5 11 0 
-1 4 8 0 
-10 12 4 0 
5 14 -13 0 
2 -14 10 0 
-10 7 14 0 
